p cnf 175 498
c inputs: 1 2 3 4 5 6 7 8 9
c variables for gates: 10 ... 166
c outputs: 167 168 169 170 171 172 173 174 175
c random input: 1 -2 3 4 -5 -6 -7 -8 9
10 -1 -5 0
-10 1 0
-10 5 0
11 -1 -6 0
-11 1 0
-11 6 0
12 -1 -7 0
-12 1 0
-12 7 0
13 -1 -8 0
-13 1 0
-13 8 0
14 -1 -9 0
-14 1 0
-14 9 0
15 -2 -5 0
-15 2 0
-15 5 0
16 -2 -6 0
-16 2 0
-16 6 0
17 -2 -7 0
-17 2 0
-17 7 0
18 -2 -8 0
-18 2 0
-18 8 0
19 -2 -9 0
-19 2 0
-19 9 0
20 -3 -5 0
-20 3 0
-20 5 0
21 -3 -6 0
-21 3 0
-21 6 0
22 -3 -7 0
-22 3 0
-22 7 0
23 -3 -8 0
-23 3 0
-23 8 0
24 -3 -9 0
-24 3 0
-24 9 0
25 -4 -5 0
-25 4 0
-25 5 0
26 -4 -6 0
-26 4 0
-26 6 0
27 -4 -7 0
-27 4 0
-27 7 0
28 -4 -8 0
-28 4 0
-28 8 0
29 -4 -9 0
-29 4 0
-29 9 0
30 -15 -11 0
-30 15 0
-30 11 0
31 -11 15 0
-31 11 0
-31 -15 0
32 -15 11 0
-32 15 0
-32 -11 0
33 31 32 0
-33 -31 0
-33 -32 0
34 -16 -12 0
-34 16 0
-34 12 0
35 -20 -12 0
-35 20 0
-35 12 0
36 -16 -20 0
-36 16 0
-36 20 0
37 36 35 0
-37 -36 0
-37 -35 0
38 34 -37 0
-38 -34 0
-38 37 0
39 -16 20 0
-39 16 0
-39 -20 0
40 -20 16 0
-40 20 0
-40 -16 0
41 40 39 0
-41 -40 0
-41 -39 0
42 -12 -41 0
-42 12 0
-42 41 0
43 12 41 0
-43 -12 0
-43 -41 0
44 42 43 0
-44 -42 0
-44 -43 0
45 -17 -13 0
-45 17 0
-45 13 0
46 -21 -13 0
-46 21 0
-46 13 0
47 -17 -21 0
-47 17 0
-47 21 0
48 47 46 0
-48 -47 0
-48 -46 0
49 45 -48 0
-49 -45 0
-49 48 0
50 -17 21 0
-50 17 0
-50 -21 0
51 -21 17 0
-51 21 0
-51 -17 0
52 51 50 0
-52 -51 0
-52 -50 0
53 -13 -52 0
-53 13 0
-53 52 0
54 13 52 0
-54 -13 0
-54 -52 0
55 53 54 0
-55 -53 0
-55 -54 0
56 -18 -14 0
-56 18 0
-56 14 0
57 -22 -14 0
-57 22 0
-57 14 0
58 -18 -22 0
-58 18 0
-58 22 0
59 57 58 0
-59 -57 0
-59 -58 0
60 56 -59 0
-60 -56 0
-60 59 0
61 -18 22 0
-61 18 0
-61 -22 0
62 -22 18 0
-62 22 0
-62 -18 0
63 62 61 0
-63 -62 0
-63 -61 0
64 -14 -63 0
-64 14 0
-64 63 0
65 14 63 0
-65 -14 0
-65 -63 0
66 64 65 0
-66 -64 0
-66 -65 0
67 -19 -23 0
-67 19 0
-67 23 0
68 -19 23 0
-68 19 0
-68 -23 0
69 -23 19 0
-69 23 0
-69 -19 0
70 69 68 0
-70 -69 0
-70 -68 0
71 -30 44 0
-71 30 0
-71 -44 0
72 30 44 0
-72 -30 0
-72 -44 0
73 -30 -44 0
-73 30 0
-73 44 0
74 73 72 0
-74 -73 0
-74 -72 0
75 38 55 0
-75 -38 0
-75 -55 0
76 -25 55 0
-76 25 0
-76 -55 0
77 -25 38 0
-77 25 0
-77 -38 0
78 77 76 0
-78 -77 0
-78 -76 0
79 -78 75 0
-79 78 0
-79 -75 0
80 25 38 0
-80 -25 0
-80 -38 0
81 -25 -38 0
-81 25 0
-81 38 0
82 81 80 0
-82 -81 0
-82 -80 0
83 55 -82 0
-83 -55 0
-83 82 0
84 -55 82 0
-84 55 0
-84 -82 0
85 84 83 0
-85 -84 0
-85 -83 0
86 49 66 0
-86 -49 0
-86 -66 0
87 -26 66 0
-87 26 0
-87 -66 0
88 -26 49 0
-88 26 0
-88 -49 0
89 88 87 0
-89 -88 0
-89 -87 0
90 -89 86 0
-90 89 0
-90 -86 0
91 26 49 0
-91 -26 0
-91 -49 0
92 -26 -49 0
-92 26 0
-92 49 0
93 92 91 0
-93 -92 0
-93 -91 0
94 66 -93 0
-94 -66 0
-94 93 0
95 -66 93 0
-95 66 0
-95 -93 0
96 95 94 0
-96 -95 0
-96 -94 0
97 70 60 0
-97 -70 0
-97 -60 0
98 -27 70 0
-98 27 0
-98 -70 0
99 -27 60 0
-99 27 0
-99 -60 0
100 98 99 0
-100 -98 0
-100 -99 0
101 97 -100 0
-101 -97 0
-101 100 0
102 27 60 0
-102 -27 0
-102 -60 0
103 -27 -60 0
-103 27 0
-103 60 0
104 103 102 0
-104 -103 0
-104 -102 0
105 70 -104 0
-105 -70 0
-105 104 0
106 -70 104 0
-106 70 0
-106 -104 0
107 105 106 0
-107 -105 0
-107 -106 0
108 -24 -67 0
-108 24 0
-108 67 0
109 -28 -24 0
-109 28 0
-109 24 0
110 -28 -67 0
-110 28 0
-110 67 0
111 109 110 0
-111 -109 0
-111 -110 0
112 108 -111 0
-112 -108 0
-112 111 0
113 28 -67 0
-113 -28 0
-113 67 0
114 -28 67 0
-114 28 0
-114 -67 0
115 113 114 0
-115 -113 0
-115 -114 0
116 -24 -115 0
-116 24 0
-116 115 0
117 24 115 0
-117 -24 0
-117 -115 0
118 117 116 0
-118 -117 0
-118 -116 0
119 71 85 0
-119 -71 0
-119 -85 0
120 -71 -85 0
-120 71 0
-120 85 0
121 120 119 0
-121 -120 0
-121 -119 0
122 -71 85 0
-122 71 0
-122 -85 0
123 96 -79 0
-123 -96 0
-123 79 0
124 -96 79 0
-124 96 0
-124 -79 0
125 123 124 0
-125 -123 0
-125 -124 0
126 -122 -125 0
-126 122 0
-126 125 0
127 122 125 0
-127 -122 0
-127 -125 0
128 127 126 0
-128 -127 0
-128 -126 0
129 -122 96 0
-129 122 0
-129 -96 0
130 -122 79 0
-130 122 0
-130 -79 0
131 96 79 0
-131 -96 0
-131 -79 0
132 131 130 0
-132 -131 0
-132 -130 0
133 -132 129 0
-133 132 0
-133 -129 0
134 107 -90 0
-134 -107 0
-134 90 0
135 -107 90 0
-135 107 0
-135 -90 0
136 134 135 0
-136 -134 0
-136 -135 0
137 -136 133 0
-137 136 0
-137 -133 0
138 136 -133 0
-138 -136 0
-138 133 0
139 138 137 0
-139 -138 0
-139 -137 0
140 107 133 0
-140 -107 0
-140 -133 0
141 133 90 0
-141 -133 0
-141 -90 0
142 107 90 0
-142 -107 0
-142 -90 0
143 142 141 0
-143 -142 0
-143 -141 0
144 -143 140 0
-144 143 0
-144 -140 0
145 118 -101 0
-145 -118 0
-145 101 0
146 -118 101 0
-146 118 0
-146 -101 0
147 145 146 0
-147 -145 0
-147 -146 0
148 144 -147 0
-148 -144 0
-148 147 0
149 -144 147 0
-149 144 0
-149 -147 0
150 148 149 0
-150 -148 0
-150 -149 0
151 144 118 0
-151 -144 0
-151 -118 0
152 144 101 0
-152 -144 0
-152 -101 0
153 118 101 0
-153 -118 0
-153 -101 0
154 153 152 0
-154 -153 0
-154 -152 0
155 -154 151 0
-155 154 0
-155 -151 0
156 -29 -112 0
-156 29 0
-156 112 0
157 29 112 0
-157 -29 0
-157 -112 0
158 157 156 0
-158 -157 0
-158 -156 0
159 -158 155 0
-159 158 0
-159 -155 0
160 158 -155 0
-160 -158 0
-160 155 0
161 159 160 0
-161 -159 0
-161 -160 0
162 -29 155 0
-162 29 0
-162 -155 0
163 112 155 0
-163 -112 0
-163 -155 0
164 -29 112 0
-164 29 0
-164 -112 0
165 164 163 0
-165 -164 0
-165 -163 0
166 -165 162 0
-166 165 0
-166 -162 0
-167 10 0
167 -10 0
-168 -33 0
168 33 0
-169 -74 0
169 74 0
-170 -121 0
170 121 0
-171 -128 0
171 128 0
-172 -139 0
172 139 0
-173 -150 0
173 150 0
-174 -161 0
174 161 0
-175 -166 0
175 166 0
-167 0
-168 0
-169 0
-170 0
171 0
-172 0
173 0
174 0
-175 0
